benchmarks_CP/INST_64x64/40/inst64x64_40_71.dzn
S=8;
start=[|
-1,	-1,	4,	-1,	59,	-1,	29,	-1,	35,	-1,	64,	-1,	23,	-1,	54,	-1,	-1,	50,	16,	-1,	-1,	25,	32,	-1,	44,	53,	5,	-1,	1,	-1,	17,	-1,	10,	-1,	-1,	-1,	-1,	6,	-1,	39,	-1,	-1,	8,	-1,	36,	13,	61,	-1,	7,	56,	-1,	-1,	-1,	46,	30,	-1,	-1,	-1,	-1,	-1,	45,	-1,	-1,	55|
1,	-1,	-1,	-1,	20,	-1,	23,	-1,	-1,	-1,	-1,	-1,	-1,	39,	-1,	-1,	-1,	58,	47,	63,	-1,	31,	-1,	14,	-1,	-1,	-1,	7,	-1,	-1,	-1,	-1,	-1,	-1,	-1,	-1,	-1,	9,	41,	-1,	-1,	-1,	-1,	18,	40,	29,	-1,	-1,	24,	-1,	-1,	4,	-1,	-1,	-1,	-1,	33,	49,	59,	-1,	-1,	-1,	43,	30|
50,	-1,	-1,	-1,	-1,	-1,	-1,	62,	4,	34,	40,	-1,	2,	38,	-1,	-1,	-1,	-1,	-1,	49,	28,	51,	64,	18,	27,	-1,	-1,	-1,	-1,	-1,	-1,	22,	-1,	-1,	-1,	-1,	11,	23,	30,	-1,	-1,	56,	-1,	-1,	-1,	-1,	47,	55,	35,	-1,	-1,	42,	-1,	-1,	-1,	36,	-1,	-1,	-1,	26,	6,	-1,	60,	-1|
-1,	22,	64,	-1,	-1,	26,	15,	-1,	48,	-1,	-1,	18,	53,	-1,	7,	-1,	-1,	-1,	40,	-1,	19,	-1,	55,	-1,	39,	-1,	50,	3,	-1,	-1,	41,	-1,	-1,	-1,	-1,	-1,	-1,	-1,	32,	-1,	-1,	-1,	28,	-1,	9,	-1,	-1,	60,	1,	-1,	-1,	27,	-1,	-1,	-1,	-1,	23,	-1,	-1,	4,	-1,	20,	-1,	13|
45,	-1,	-1,	44,	-1,	-1,	-1,	-1,	6,	-1,	-1,	12,	-1,	-1,	37,	50,	4,	54,	-1,	-1,	23,	-1,	-1,	13,	40,	-1,	35,	-1,	-1,	2,	-1,	63,	62,	36,	5,	18,	-1,	17,	-1,	-1,	41,	-1,	53,	-1,	51,	30,	-1,	-1,	-1,	48,	-1,	-1,	34,	-1,	3,	25,	-1,	7,	-1,	14,	-1,	9,	32,	57|
35,	48,	61,	28,	-1,	17,	56,	52,	24,	-1,	-1,	14,	-1,	-1,	-1,	-1,	-1,	-1,	30,	-1,	7,	-1,	-1,	2,	-1,	-1,	-1,	-1,	-1,	-1,	60,	59,	-1,	20,	19,	53,	-1,	-1,	3,	-1,	-1,	-1,	11,	15,	-1,	-1,	43,	23,	-1,	40,	50,	-1,	-1,	-1,	5,	55,	29,	-1,	-1,	-1,	10,	46,	-1,	-1|
-1,	-1,	2,	55,	14,	63,	-1,	5,	-1,	43,	-1,	47,	-1,	-1,	-1,	-1,	-1,	-1,	-1,	-1,	-1,	9,	-1,	59,	36,	37,	15,	-1,	-1,	-1,	-1,	-1,	4,	-1,	-1,	-1,	49,	-1,	-1,	26,	32,	24,	6,	-1,	-1,	35,	52,	7,	-1,	-1,	-1,	-1,	19,	-1,	39,	12,	16,	-1,	-1,	53,	-1,	-1,	-1,	-1|
9,	-1,	-1,	60,	-1,	38,	-1,	-1,	-1,	59,	21,	41,	-1,	-1,	-1,	-1,	33,	34,	56,	17,	43,	-1,	57,	-1,	-1,	51,	24,	-1,	48,	47,	-1,	-1,	-1,	45,	-1,	46,	40,	-1,	1,	-1,	-1,	-1,	-1,	-1,	14,	-1,	-1,	-1,	-1,	-1,	-1,	-1,	-1,	18,	-1,	16,	-1,	27,	-1,	-1,	58,	25,	-1,	-1|
-1,	-1,	20,	-1,	60,	-1,	-1,	21,	-1,	-1,	28,	-1,	61,	42,	-1,	-1,	54,	-1,	35,	32,	-1,	30,	-1,	48,	-1,	-1,	-1,	1,	-1,	-1,	-1,	-1,	-1,	64,	18,	6,	62,	-1,	-1,	-1,	33,	-1,	-1,	-1,	-1,	-1,	16,	56,	10,	-1,	-1,	-1,	-1,	50,	-1,	-1,	58,	63,	-1,	-1,	15,	-1,	13,	-1|
49,	-1,	11,	-1,	-1,	-1,	-1,	-1,	-1,	44,	-1,	15,	21,	52,	-1,	-1,	-1,	-1,	-1,	16,	-1,	41,	-1,	9,	-1,	2,	-1,	51,	-1,	-1,	-1,	39,	56,	-1,	-1,	33,	-1,	-1,	-1,	48,	47,	63,	-1,	-1,	-1,	-1,	-1,	-1,	-1,	62,	35,	-1,	-1,	29,	-1,	-1,	-1,	-1,	-1,	-1,	24,	-1,	-1,	-1|
40,	10,	41,	-1,	30,	52,	26,	53,	-1,	35,	-1,	-1,	-1,	54,	-1,	33,	37,	61,	17,	-1,	14,	-1,	51,	-1,	-1,	56,	59,	48,	-1,	-1,	-1,	-1,	-1,	-1,	28,	-1,	-1,	-1,	-1,	-1,	-1,	-1,	-1,	-1,	27,	44,	-1,	-1,	-1,	55,	63,	-1,	-1,	-1,	-1,	45,	-1,	1,	-1,	42,	-1,	47,	-1,	29|
-1,	-1,	14,	19,	-1,	15,	-1,	-1,	31,	26,	11,	1,	27,	10,	-1,	-1,	25,	-1,	-1,	29,	3,	44,	28,	-1,	-1,	-1,	-1,	-1,	-1,	-1,	54,	-1,	53,	-1,	51,	-1,	4,	-1,	-1,	-1,	13,	52,	58,	40,	-1,	-1,	5,	-1,	56,	-1,	-1,	-1,	-1,	-1,	-1,	-1,	-1,	-1,	-1,	-1,	57,	-1,	46,	45|
-1,	-1,	12,	47,	-1,	-1,	46,	-1,	-1,	2,	24,	58,	-1,	-1,	-1,	-1,	56,	-1,	-1,	33,	10,	-1,	-1,	6,	-1,	17,	-1,	50,	-1,	63,	13,	-1,	-1,	-1,	-1,	-1,	-1,	14,	-1,	15,	29,	-1,	48,	34,	-1,	-1,	62,	64,	-1,	-1,	-1,	-1,	-1,	-1,	-1,	-1,	-1,	16,	-1,	-1,	-1,	-1,	61,	-1|
33,	56,	-1,	-1,	-1,	58,	-1,	-1,	13,	4,	-1,	-1,	20,	-1,	-1,	17,	-1,	38,	-1,	-1,	39,	-1,	19,	-1,	14,	-1,	-1,	-1,	7,	-1,	55,	-1,	-1,	1,	41,	-1,	-1,	-1,	-1,	5,	-1,	15,	61,	-1,	-1,	54,	24,	51,	-1,	-1,	-1,	36,	-1,	-1,	64,	-1,	53,	-1,	40,	-1,	-1,	-1,	62,	-1|
34,	62,	29,	-1,	-1,	-1,	2,	4,	8,	5,	-1,	-1,	6,	18,	-1,	-1,	13,	15,	1,	-1,	-1,	-1,	-1,	-1,	-1,	-1,	47,	53,	-1,	22,	21,	44,	-1,	58,	27,	-1,	-1,	-1,	-1,	45,	-1,	38,	-1,	50,	3,	-1,	-1,	-1,	-1,	-1,	-1,	-1,	-1,	-1,	-1,	11,	49,	35,	-1,	-1,	-1,	-1,	-1,	-1|
-1,	24,	-1,	-1,	-1,	7,	-1,	-1,	-1,	-1,	-1,	-1,	-1,	-1,	40,	-1,	-1,	21,	-1,	-1,	20,	-1,	-1,	-1,	-1,	-1,	-1,	-1,	-1,	-1,	35,	37,	-1,	-1,	13,	-1,	19,	-1,	-1,	11,	55,	26,	-1,	-1,	32,	36,	-1,	-1,	-1,	-1,	-1,	41,	-1,	38,	-1,	-1,	-1,	-1,	-1,	-1,	5,	33,	-1,	-1|
37,	33,	-1,	17,	3,	4,	47,	42,	-1,	-1,	-1,	13,	14,	-1,	-1,	21,	44,	-1,	62,	19,	25,	-1,	59,	-1,	-1,	26,	56,	-1,	51,	7,	-1,	-1,	58,	61,	30,	57,	48,	-1,	-1,	-1,	-1,	-1,	27,	43,	28,	64,	49,	45,	29,	-1,	-1,	15,	-1,	-1,	-1,	-1,	-1,	40,	46,	-1,	20,	-1,	-1,	-1|
-1,	-1,	13,	-1,	-1,	-1,	-1,	-1,	41,	-1,	51,	-1,	-1,	40,	-1,	35,	-1,	-1,	-1,	61,	50,	-1,	37,	-1,	-1,	-1,	52,	-1,	-1,	-1,	-1,	-1,	8,	-1,	-1,	-1,	-1,	-1,	18,	-1,	7,	4,	31,	62,	-1,	-1,	-1,	16,	-1,	2,	-1,	60,	53,	-1,	27,	46,	-1,	-1,	33,	-1,	-1,	38,	47,	-1|
-1,	-1,	-1,	-1,	-1,	-1,	-1,	-1,	54,	-1,	-1,	23,	44,	22,	-1,	-1,	-1,	-1,	-1,	-1,	-1,	47,	45,	-1,	-1,	24,	-1,	-1,	-1,	37,	33,	-1,	-1,	3,	-1,	1,	43,	-1,	-1,	-1,	36,	-1,	-1,	-1,	-1,	-1,	-1,	-1,	50,	-1,	-1,	-1,	10,	-1,	20,	-1,	-1,	-1,	-1,	-1,	53,	-1,	-1,	-1|
59,	-1,	40,	46,	-1,	31,	-1,	-1,	-1,	-1,	8,	38,	-1,	-1,	29,	3,	30,	-1,	-1,	-1,	41,	-1,	-1,	23,	-1,	-1,	-1,	47,	62,	-1,	-1,	21,	44,	25,	-1,	50,	-1,	49,	-1,	24,	51,	-1,	-1,	-1,	-1,	-1,	-1,	1,	19,	-1,	-1,	-1,	-1,	-1,	-1,	-1,	-1,	-1,	2,	-1,	-1,	-1,	27,	14|
-1,	64,	45,	38,	-1,	-1,	-1,	35,	55,	-1,	-1,	-1,	-1,	-1,	1,	53,	-1,	-1,	-1,	36,	-1,	48,	-1,	-1,	41,	46,	23,	43,	-1,	-1,	-1,	-1,	33,	22,	7,	-1,	-1,	-1,	-1,	62,	-1,	3,	-1,	47,	-1,	2,	58,	-1,	17,	-1,	4,	24,	-1,	-1,	-1,	34,	-1,	-1,	19,	8,	-1,	6,	44,	60|
-1,	-1,	-1,	-1,	-1,	-1,	19,	48,	56,	-1,	-1,	20,	52,	6,	10,	49,	-1,	-1,	-1,	14,	-1,	58,	12,	27,	31,	3,	-1,	-1,	-1,	-1,	39,	-1,	-1,	-1,	29,	-1,	-1,	41,	-1,	53,	-1,	30,	-1,	-1,	-1,	-1,	-1,	24,	26,	64,	-1,	9,	-1,	-1,	-1,	18,	-1,	-1,	13,	36,	51,	57,	45,	-1|
26,	43,	15,	-1,	-1,	60,	-1,	-1,	19,	62,	12,	-1,	58,	-1,	-1,	-1,	7,	57,	-1,	31,	-1,	24,	8,	-1,	16,	-1,	13,	-1,	-1,	-1,	-1,	-1,	-1,	14,	-1,	-1,	47,	-1,	-1,	40,	-1,	-1,	23,	9,	-1,	-1,	44,	-1,	59,	63,	-1,	-1,	-1,	-1,	-1,	-1,	64,	21,	-1,	-1,	3,	-1,	-1,	-1|
-1,	-1,	-1,	-1,	-1,	-1,	-1,	-1,	50,	-1,	7,	-1,	-1,	-1,	-1,	-1,	10,	-1,	-1,	43,	-1,	20,	-1,	-1,	-1,	-1,	-1,	-1,	-1,	-1,	-1,	-1,	-1,	-1,	-1,	-1,	-1,	-1,	-1,	51,	-1,	48,	-1,	-1,	-1,	-1,	-1,	-1,	38,	44,	-1,	-1,	-1,	45,	-1,	57,	61,	54,	24,	-1,	-1,	49,	-1,	-1|
30,	-1,	-1,	-1,	-1,	28,	8,	38,	-1,	-1,	60,	-1,	-1,	-1,	-1,	7,	45,	-1,	-1,	-1,	-1,	-1,	-1,	-1,	-1,	59,	58,	-1,	47,	-1,	-1,	36,	55,	-1,	3,	-1,	-1,	54,	53,	-1,	43,	-1,	15,	-1,	-1,	-1,	25,	52,	-1,	-1,	-1,	37,	1,	-1,	-1,	-1,	-1,	20,	-1,	6,	32,	-1,	21,	40|
-1,	-1,	-1,	-1,	-1,	-1,	-1,	-1,	-1,	-1,	-1,	-1,	-1,	-1,	17,	13,	-1,	-1,	14,	47,	29,	-1,	-1,	60,	-1,	12,	25,	-1,	30,	-1,	-1,	7,	-1,	2,	-1,	-1,	-1,	33,	43,	18,	-1,	-1,	-1,	-1,	44,	42,	64,	-1,	-1,	10,	-1,	-1,	-1,	31,	-1,	-1,	-1,	-1,	22,	5,	41,	-1,	-1,	-1|
-1,	-1,	-1,	-1,	-1,	24,	51,	-1,	38,	-1,	23,	-1,	25,	20,	-1,	6,	-1,	-1,	9,	-1,	54,	26,	-1,	-1,	15,	-1,	29,	13,	21,	-1,	32,	-1,	-1,	-1,	39,	58,	-1,	-1,	-1,	-1,	-1,	-1,	17,	-1,	-1,	-1,	-1,	36,	-1,	-1,	56,	-1,	27,	-1,	-1,	7,	-1,	47,	-1,	46,	-1,	-1,	33,	-1|
43,	19,	60,	-1,	36,	2,	-1,	-1,	-1,	-1,	18,	3,	16,	21,	28,	47,	59,	-1,	-1,	-1,	15,	-1,	50,	-1,	-1,	62,	34,	-1,	-1,	-1,	20,	-1,	-1,	-1,	-1,	-1,	-1,	-1,	48,	25,	-1,	-1,	24,	7,	30,	31,	-1,	-1,	-1,	29,	-1,	-1,	33,	-1,	11,	64,	-1,	-1,	27,	-1,	-1,	-1,	-1,	-1|
-1,	-1,	-1,	53,	54,	-1,	-1,	29,	-1,	-1,	-1,	-1,	-1,	-1,	5,	-1,	-1,	-1,	24,	-1,	-1,	-1,	21,	-1,	4,	-1,	-1,	22,	50,	-1,	-1,	28,	17,	-1,	-1,	56,	15,	37,	13,	-1,	-1,	58,	32,	-1,	-1,	-1,	-1,	27,	-1,	18,	16,	-1,	52,	-1,	-1,	-1,	-1,	34,	-1,	-1,	60,	31,	-1,	-1|
-1,	40,	-1,	-1,	-1,	47,	-1,	55,	33,	-1,	-1,	-1,	24,	44,	4,	-1,	-1,	-1,	-1,	-1,	-1,	-1,	-1,	-1,	-1,	23,	54,	63,	-1,	60,	-1,	38,	28,	41,	57,	30,	34,	-1,	36,	-1,	6,	39,	-1,	-1,	56,	16,	50,	59,	14,	5,	25,	-1,	-1,	26,	15,	-1,	17,	-1,	-1,	-1,	-1,	-1,	7,	2|
-1,	-1,	-1,	-1,	57,	-1,	-1,	25,	-1,	54,	-1,	-1,	12,	-1,	48,	-1,	-1,	10,	-1,	-1,	46,	43,	-1,	3,	17,	-1,	-1,	-1,	-1,	35,	2,	16,	61,	-1,	-1,	-1,	-1,	45,	14,	27,	-1,	19,	13,	-1,	-1,	63,	40,	5,	-1,	-1,	39,	-1,	-1,	60,	-1,	-1,	24,	-1,	-1,	51,	11,	4,	-1,	50|
13,	-1,	-1,	62,	-1,	-1,	-1,	59,	-1,	-1,	-1,	26,	46,	53,	22,	30,	-1,	32,	-1,	-1,	-1,	-1,	-1,	40,	-1,	6,	55,	24,	-1,	19,	51,	-1,	-1,	-1,	21,	-1,	-1,	7,	-1,	1,	45,	2,	-1,	-1,	-1,	3,	-1,	47,	-1,	-1,	57,	44,	-1,	41,	58,	-1,	-1,	-1,	-1,	56,	-1,	-1,	-1,	-1|
7,	-1,	6,	2,	38,	20,	48,	51,	29,	-1,	-1,	-1,	-1,	-1,	-1,	-1,	11,	-1,	-1,	-1,	59,	-1,	-1,	5,	-1,	-1,	49,	-1,	55,	-1,	62,	41,	-1,	-1,	58,	-1,	32,	-1,	25,	-1,	-1,	60,	3,	-1,	42,	52,	8,	57,	36,	17,	53,	45,	64,	19,	54,	-1,	43,	-1,	-1,	-1,	-1,	34,	-1,	33|
-1,	-1,	-1,	-1,	-1,	-1,	-1,	-1,	-1,	-1,	44,	56,	-1,	-1,	3,	-1,	-1,	16,	-1,	-1,	-1,	-1,	-1,	-1,	-1,	-1,	61,	9,	-1,	20,	-1,	12,	35,	31,	11,	-1,	-1,	27,	-1,	-1,	2,	40,	37,	5,	59,	4,	-1,	-1,	-1,	-1,	-1,	18,	57,	-1,	-1,	-1,	8,	-1,	-1,	-1,	-1,	23,	52,	-1|
-1,	-1,	59,	-1,	-1,	39,	21,	56,	23,	53,	2,	5,	-1,	-1,	57,	11,	-1,	-1,	43,	-1,	9,	40,	-1,	-1,	-1,	8,	22,	-1,	-1,	-1,	29,	27,	6,	33,	-1,	4,	-1,	13,	-1,	54,	-1,	-1,	-1,	-1,	-1,	24,	-1,	-1,	-1,	-1,	-1,	-1,	16,	-1,	-1,	-1,	-1,	-1,	-1,	7,	61,	-1,	-1,	-1|
28,	-1,	-1,	16,	63,	-1,	-1,	-1,	-1,	-1,	-1,	21,	-1,	35,	-1,	-1,	-1,	46,	44,	-1,	-1,	39,	33,	50,	-1,	-1,	2,	-1,	-1,	-1,	-1,	17,	-1,	53,	48,	-1,	-1,	-1,	-1,	-1,	-1,	-1,	-1,	61,	38,	-1,	-1,	26,	-1,	51,	-1,	22,	-1,	-1,	-1,	32,	-1,	-1,	-1,	-1,	-1,	-1,	-1,	24|
-1,	-1,	3,	-1,	40,	62,	13,	24,	-1,	30,	55,	17,	-1,	-1,	-1,	-1,	-1,	7,	61,	37,	64,	-1,	29,	-1,	-1,	15,	-1,	57,	-1,	-1,	-1,	4,	41,	-1,	-1,	52,	-1,	38,	-1,	49,	21,	-1,	20,	-1,	-1,	-1,	-1,	-1,	-1,	-1,	23,	-1,	56,	27,	-1,	39,	-1,	-1,	60,	12,	48,	-1,	-1,	-1|
-1,	-1,	22,	-1,	-1,	-1,	64,	32,	40,	-1,	-1,	-1,	62,	-1,	16,	-1,	-1,	-1,	-1,	-1,	-1,	42,	23,	-1,	56,	14,	-1,	-1,	-1,	-1,	-1,	-1,	-1,	-1,	26,	-1,	-1,	39,	50,	-1,	-1,	-1,	-1,	-1,	7,	41,	-1,	34,	-1,	6,	-1,	-1,	-1,	44,	-1,	-1,	55,	-1,	3,	-1,	47,	-1,	-1,	-1|
-1,	-1,	30,	-1,	-1,	42,	-1,	-1,	-1,	-1,	-1,	-1,	-1,	-1,	27,	32,	2,	-1,	-1,	-1,	-1,	-1,	34,	35,	23,	47,	-1,	-1,	60,	-1,	-1,	-1,	40,	-1,	36,	22,	-1,	-1,	-1,	57,	18,	-1,	10,	25,	12,	-1,	-1,	58,	-1,	33,	7,	-1,	-1,	63,	41,	24,	56,	5,	62,	20,	-1,	45,	-1,	-1|
-1,	4,	26,	52,	34,	61,	-1,	-1,	-1,	-1,	-1,	9,	8,	-1,	-1,	-1,	47,	30,	-1,	53,	-1,	6,	-1,	10,	-1,	-1,	-1,	-1,	-1,	-1,	63,	-1,	-1,	18,	-1,	-1,	-1,	-1,	42,	-1,	-1,	-1,	22,	-1,	-1,	-1,	17,	-1,	40,	31,	-1,	-1,	-1,	21,	49,	-1,	-1,	-1,	41,	54,	-1,	11,	-1,	-1|
-1,	27,	-1,	-1,	45,	-1,	31,	-1,	25,	23,	-1,	50,	35,	-1,	9,	-1,	-1,	-1,	10,	-1,	51,	-1,	6,	-1,	47,	-1,	-1,	21,	-1,	-1,	-1,	40,	43,	-1,	-1,	-1,	-1,	57,	-1,	-1,	52,	13,	34,	-1,	26,	38,	32,	28,	53,	-1,	19,	-1,	-1,	-1,	-1,	62,	-1,	-1,	1,	-1,	-1,	16,	-1,	54|
60,	-1,	-1,	-1,	-1,	-1,	-1,	44,	43,	33,	-1,	-1,	-1,	-1,	-1,	-1,	58,	-1,	-1,	59,	24,	-1,	41,	-1,	-1,	61,	-1,	-1,	-1,	-1,	-1,	-1,	-1,	-1,	37,	-1,	-1,	-1,	-1,	55,	40,	-1,	-1,	-1,	-1,	-1,	-1,	-1,	-1,	-1,	14,	-1,	-1,	49,	-1,	2,	-1,	19,	56,	-1,	35,	-1,	12,	-1|
-1,	8,	38,	-1,	-1,	-1,	12,	13,	-1,	-1,	-1,	-1,	10,	-1,	45,	57,	-1,	-1,	48,	64,	-1,	55,	-1,	63,	-1,	11,	41,	35,	-1,	-1,	-1,	-1,	-1,	23,	-1,	-1,	-1,	-1,	-1,	52,	-1,	-1,	39,	-1,	19,	62,	-1,	49,	-1,	-1,	-1,	16,	58,	-1,	-1,	-1,	-1,	28,	32,	-1,	-1,	22,	9,	-1|
-1,	57,	-1,	-1,	2,	16,	-1,	14,	-1,	-1,	-1,	-1,	-1,	58,	55,	24,	-1,	33,	-1,	3,	-1,	27,	-1,	-1,	22,	54,	-1,	59,	-1,	-1,	7,	49,	-1,	28,	46,	-1,	-1,	-1,	-1,	-1,	-1,	41,	-1,	11,	50,	10,	6,	-1,	42,	-1,	15,	25,	-1,	12,	-1,	-1,	-1,	62,	61,	-1,	40,	-1,	-1,	21|
-1,	7,	35,	-1,	-1,	34,	-1,	-1,	52,	-1,	4,	49,	11,	3,	-1,	-1,	-1,	-1,	50,	40,	-1,	-1,	26,	47,	-1,	38,	62,	64,	57,	-1,	16,	-1,	31,	-1,	-1,	-1,	41,	-1,	-1,	59,	56,	-1,	33,	-1,	60,	-1,	-1,	54,	37,	-1,	-1,	1,	61,	-1,	-1,	-1,	20,	2,	-1,	-1,	-1,	-1,	17,	-1|
23,	61,	-1,	59,	-1,	-1,	43,	-1,	7,	-1,	20,	6,	5,	-1,	47,	-1,	18,	42,	-1,	-1,	-1,	16,	-1,	53,	19,	-1,	63,	-1,	-1,	4,	-1,	-1,	3,	50,	-1,	-1,	1,	-1,	-1,	56,	57,	-1,	55,	8,	25,	-1,	-1,	-1,	-1,	34,	-1,	29,	-1,	-1,	38,	9,	-1,	45,	-1,	15,	-1,	41,	64,	-1|
-1,	-1,	48,	4,	-1,	-1,	-1,	20,	-1,	-1,	-1,	-1,	42,	2,	-1,	59,	-1,	25,	57,	13,	37,	56,	-1,	11,	-1,	44,	-1,	39,	-1,	-1,	-1,	-1,	-1,	6,	-1,	-1,	-1,	-1,	54,	36,	5,	-1,	7,	16,	-1,	27,	23,	-1,	-1,	-1,	-1,	55,	-1,	35,	45,	-1,	-1,	-1,	-1,	-1,	-1,	-1,	31,	-1|
-1,	25,	-1,	64,	15,	-1,	-1,	-1,	-1,	-1,	53,	32,	-1,	-1,	41,	-1,	-1,	60,	-1,	-1,	-1,	-1,	-1,	-1,	26,	-1,	-1,	33,	23,	-1,	14,	50,	2,	-1,	38,	-1,	42,	-1,	-1,	-1,	17,	-1,	-1,	24,	-1,	1,	3,	61,	-1,	7,	-1,	-1,	-1,	36,	6,	-1,	13,	-1,	-1,	58,	-1,	43,	59,	-1|
-1,	13,	-1,	-1,	16,	-1,	4,	15,	-1,	-1,	-1,	-1,	-1,	5,	50,	-1,	53,	-1,	33,	30,	36,	10,	54,	21,	-1,	42,	-1,	-1,	56,	-1,	-1,	-1,	48,	-1,	-1,	-1,	-1,	-1,	-1,	-1,	60,	-1,	-1,	23,	-1,	37,	-1,	-1,	-1,	-1,	38,	-1,	-1,	8,	34,	29,	-1,	46,	-1,	-1,	-1,	-1,	22,	-1|
-1,	-1,	-1,	50,	-1,	10,	-1,	45,	-1,	-1,	-1,	61,	-1,	-1,	-1,	18,	-1,	56,	8,	-1,	-1,	-1,	-1,	-1,	53,	-1,	-1,	27,	-1,	41,	-1,	-1,	52,	-1,	-1,	-1,	-1,	-1,	37,	-1,	-1,	-1,	-1,	-1,	-1,	-1,	-1,	-1,	31,	57,	-1,	-1,	48,	54,	-1,	23,	-1,	33,	-1,	-1,	38,	29,	51,	5|
12,	-1,	-1,	-1,	-1,	51,	-1,	30,	10,	36,	9,	11,	57,	55,	-1,	-1,	-1,	41,	6,	-1,	-1,	17,	15,	-1,	29,	-1,	14,	61,	52,	-1,	23,	-1,	-1,	44,	59,	21,	13,	-1,	40,	38,	-1,	-1,	-1,	-1,	-1,	-1,	7,	25,	-1,	-1,	-1,	-1,	-1,	-1,	47,	50,	-1,	-1,	8,	-1,	2,	-1,	24,	-1|
-1,	-1,	58,	-1,	-1,	64,	60,	-1,	-1,	3,	14,	53,	-1,	34,	35,	-1,	51,	-1,	-1,	-1,	-1,	46,	63,	62,	12,	-1,	8,	16,	-1,	-1,	-1,	-1,	18,	-1,	-1,	-1,	-1,	-1,	61,	-1,	31,	-1,	-1,	-1,	4,	48,	-1,	-1,	-1,	-1,	-1,	17,	32,	-1,	52,	-1,	-1,	-1,	-1,	-1,	-1,	-1,	-1,	28|
-1,	-1,	-1,	-1,	8,	-1,	62,	-1,	-1,	12,	-1,	16,	-1,	-1,	15,	-1,	28,	-1,	-1,	-1,	-1,	37,	47,	-1,	-1,	-1,	-1,	54,	-1,	-1,	5,	6,	-1,	-1,	53,	17,	-1,	1,	-1,	3,	-1,	33,	-1,	55,	-1,	18,	-1,	50,	-1,	36,	51,	-1,	-1,	-1,	9,	40,	-1,	23,	57,	-1,	-1,	39,	-1,	-1|
-1,	-1,	-1,	11,	-1,	-1,	-1,	-1,	-1,	-1,	-1,	-1,	-1,	45,	-1,	-1,	14,	48,	18,	9,	-1,	-1,	-1,	58,	33,	-1,	-1,	-1,	-1,	1,	59,	-1,	-1,	-1,	-1,	25,	-1,	-1,	49,	-1,	24,	-1,	30,	57,	-1,	8,	-1,	-1,	63,	-1,	-1,	-1,	15,	62,	-1,	19,	-1,	-1,	-1,	-1,	-1,	56,	40,	-1|
5,	-1,	-1,	-1,	-1,	1,	-1,	26,	62,	-1,	-1,	-1,	-1,	7,	-1,	-1,	-1,	-1,	-1,	35,	45,	23,	-1,	-1,	50,	-1,	-1,	17,	-1,	-1,	30,	-1,	42,	-1,	-1,	-1,	-1,	-1,	-1,	4,	38,	27,	-1,	49,	-1,	61,	-1,	46,	-1,	-1,	-1,	-1,	20,	-1,	43,	-1,	-1,	-1,	16,	60,	-1,	10,	-1,	9|
2,	-1,	-1,	9,	-1,	-1,	-1,	-1,	-1,	63,	-1,	-1,	32,	-1,	-1,	-1,	-1,	-1,	-1,	-1,	-1,	-1,	38,	61,	-1,	-1,	-1,	15,	-1,	34,	-1,	-1,	-1,	-1,	8,	-1,	36,	24,	-1,	30,	-1,	-1,	-1,	-1,	43,	-1,	53,	-1,	-1,	-1,	-1,	-1,	-1,	-1,	-1,	3,	-1,	-1,	-1,	45,	19,	-1,	6,	44|
42,	38,	-1,	-1,	21,	-1,	33,	-1,	-1,	-1,	-1,	-1,	-1,	60,	8,	-1,	-1,	28,	-1,	-1,	26,	-1,	46,	51,	52,	7,	10,	-1,	5,	23,	61,	57,	-1,	-1,	17,	-1,	-1,	11,	-1,	37,	-1,	12,	25,	-1,	-1,	-1,	-1,	-1,	3,	-1,	32,	-1,	-1,	-1,	-1,	-1,	-1,	-1,	44,	-1,	-1,	50,	-1,	-1|
52,	-1,	-1,	-1,	-1,	-1,	-1,	-1,	-1,	64,	-1,	-1,	-1,	46,	36,	-1,	39,	-1,	2,	-1,	-1,	-1,	-1,	30,	32,	27,	-1,	4,	15,	-1,	44,	-1,	22,	-1,	-1,	-1,	-1,	-1,	-1,	20,	62,	-1,	50,	-1,	-1,	-1,	31,	-1,	28,	21,	9,	-1,	-1,	56,	60,	-1,	-1,	41,	-1,	-1,	-1,	-1,	18,	3|
4,	26,	-1,	-1,	19,	-1,	-1,	60,	-1,	50,	-1,	-1,	9,	62,	-1,	2,	36,	6,	32,	-1,	-1,	-1,	48,	22,	-1,	45,	51,	-1,	49,	29,	-1,	-1,	1,	-1,	44,	-1,	-1,	55,	-1,	-1,	23,	-1,	43,	13,	-1,	28,	35,	8,	27,	-1,	-1,	12,	-1,	-1,	-1,	-1,	-1,	-1,	10,	-1,	-1,	-1,	58,	-1|
-1,	-1,	23,	20,	-1,	-1,	-1,	-1,	-1,	-1,	-1,	-1,	-1,	-1,	-1,	-1,	-1,	62,	-1,	-1,	-1,	21,	40,	-1,	63,	-1,	-1,	19,	-1,	-1,	-1,	-1,	-1,	-1,	42,	-1,	-1,	60,	-1,	32,	49,	-1,	9,	53,	-1,	-1,	34,	3,	16,	-1,	-1,	-1,	26,	1,	-1,	-1,	4,	15,	-1,	33,	22,	-1,	-1,	56|
31,	3,	-1,	-1,	-1,	-1,	-1,	7,	45,	-1,	-1,	-1,	-1,	-1,	-1,	-1,	19,	-1,	-1,	-1,	-1,	50,	-1,	-1,	21,	-1,	-1,	-1,	54,	-1,	47,	-1,	-1,	5,	24,	-1,	-1,	-1,	38,	-1,	-1,	-1,	1,	-1,	2,	-1,	-1,	4,	-1,	-1,	-1,	-1,	-1,	-1,	51,	-1,	-1,	-1,	-1,	29,	64,	-1,	26,	-1|
-1,	12,	-1,	-1,	-1,	59,	-1,	-1,	-1,	-1,	-1,	34,	-1,	-1,	20,	-1,	-1,	13,	-1,	4,	-1,	3,	-1,	-1,	42,	-1,	-1,	-1,	33,	-1,	1,	-1,	-1,	-1,	-1,	-1,	-1,	-1,	-1,	58,	-1,	-1,	-1,	44,	48,	11,	-1,	38,	-1,	-1,	22,	-1,	-1,	37,	-1,	-1,	5,	-1,	-1,	-1,	46,	54,	-1,	-1|
-1,	-1,	-1,	15,	-1,	-1,	44,	-1,	-1,	49,	-1,	24,	-1,	-1,	38,	37,	9,	-1,	-1,	-1,	-1,	18,	-1,	20,	28,	-1,	-1,	-1,	-1,	16,	-1,	35,	-1,	26,	-1,	64,	-1,	-1,	31,	29,	-1,	-1,	14,	-1,	-1,	-1,	-1,	-1,	-1,	30,	-1,	50,	13,	-1,	-1,	-1,	57,	-1,	47,	-1,	43,	32,	25,	-1|
-1,	34,	-1,	57,	50,	22,	-1,	46,	51,	-1,	-1,	10,	-1,	-1,	21,	-1,	-1,	-1,	-1,	-1,	17,	-1,	-1,	56,	58,	60,	48,	-1,	24,	31,	-1,	20,	-1,	40,	-1,	-1,	28,	-1,	-1,	-1,	-1,	36,	-1,	-1,	29,	-1,	19,	-1,	39,	47,	-1,	-1,	35,	-1,	7,	5,	-1,	-1,	45,	-1,	-1,	-1,	-1,	38|];
