sudoku-ls/benchmarks_LEQ/INST_64x64/40/inst64x64_40_71.txt
8
1
-1	-1	4	-1	59	19	-1	-1	-1	-1	-1	-1	-1	-1	54	-1	-1	-1	-1	27	-1	25	-1	38	-1	53	5	49	1	-1	-1	-1	-1	-1	-1	-1	12	6	-1	-1	-1	-1	-1	-1	36	-1	-1	-1	7	56	-1	47	-1	46	-1	-1	-1	24	-1	-1	-1	-1	3	55
1	-1	-1	34	-1	-1	-1	-1	16	-1	-1	-1	-1	39	-1	10	-1	-1	47	-1	11	-1	-1	-1	-1	-1	6	7	-1	-1	-1	-1	-1	48	-1	-1	50	-1	41	-1	-1	-1	-1	-1	-1	-1	-1	17	-1	26	-1	4	-1	-1	-1	-1	-1	-1	-1	64	-1	-1	-1	-1
50	-1	53	-1	-1	-1	-1	62	-1	34	-1	-1	2	-1	-1	5	15	-1	-1	-1	-1	51	-1	-1	27	-1	-1	46	19	-1	-1	22	-1	8	-1	-1	-1	-1	-1	-1	-1	56	-1	-1	-1	-1	-1	-1	-1	52	-1	42	-1	14	29	-1	-1	17	-1	-1	-1	-1	-1	-1
-1	-1	64	-1	-1	26	-1	-1	48	-1	46	-1	-1	11	-1	-1	29	5	-1	-1	19	-1	-1	-1	-1	30	-1	3	-1	-1	-1	-1	-1	-1	-1	-1	-1	-1	32	-1	34	59	-1	33	9	45	2	-1	-1	49	10	27	63	58	-1	-1	-1	-1	-1	4	54	-1	-1	-1
-1	47	-1	-1	-1	27	-1	-1	-1	55	-1	12	-1	-1	37	50	4	-1	-1	-1	-1	61	-1	13	-1	52	-1	-1	29	-1	-1	-1	-1	-1	5	18	-1	-1	-1	-1	-1	16	-1	64	-1	-1	21	10	-1	48	-1	20	-1	15	3	-1	-1	7	-1	14	8	9	-1	-1
-1	48	61	28	33	-1	-1	-1	-1	-1	32	-1	-1	9	-1	26	6	44	30	45	-1	12	39	2	18	34	-1	38	-1	-1	-1	-1	54	-1	-1	-1	-1	22	-1	13	25	-1	11	15	58	57	-1	-1	-1	-1	50	-1	-1	51	5	-1	-1	42	-1	-1	-1	-1	-1	-1
-1	42	-1	55	-1	63	40	-1	-1	43	-1	-1	17	-1	-1	-1	-1	-1	21	-1	48	-1	-1	-1	36	-1	-1	45	-1	61	28	-1	-1	34	60	-1	49	58	-1	-1	-1	24	6	38	-1	-1	-1	-1	64	54	-1	-1	-1	23	-1	-1	-1	11	-1	-1	-1	44	-1	31
-1	-1	36	-1	13	-1	-1	-1	-1	-1	-1	41	-1	29	44	-1	33	-1	-1	-1	-1	-1	-1	42	8	51	-1	-1	48	47	-1	26	-1	-1	-1	46	-1	64	-1	-1	-1	-1	-1	20	-1	-1	4	19	-1	-1	11	-1	37	18	32	16	-1	-1	-1	-1	-1	-1	15	-1
-1	-1	-1	3	60	45	22	-1	14	38	-1	46	-1	-1	25	-1	-1	-1	35	-1	27	-1	31	48	-1	5	-1	1	-1	40	-1	-1	-1	-1	-1	-1	62	-1	24	-1	-1	-1	-1	19	37	12	-1	56	10	4	59	-1	17	50	-1	-1	58	-1	-1	-1	-1	-1	13	26
-1	-1	-1	-1	64	-1	-1	54	3	44	-1	-1	-1	-1	-1	55	40	59	42	-1	34	41	-1	9	-1	2	-1	51	58	45	-1	-1	-1	-1	-1	-1	-1	-1	-1	48	47	-1	-1	-1	-1	14	-1	-1	25	62	-1	-1	-1	-1	26	-1	-1	-1	31	-1	-1	30	4	27
-1	-1	-1	-1	30	-1	-1	53	-1	-1	49	-1	7	-1	23	-1	-1	61	-1	-1	14	62	-1	43	64	56	-1	-1	-1	-1	-1	-1	-1	-1	-1	-1	-1	-1	16	-1	-1	-1	-1	-1	-1	-1	-1	-1	5	-1	63	58	-1	-1	24	45	-1	-1	20	42	-1	47	-1	29
-1	-1	-1	-1	-1	15	-1	-1	-1	26	-1	-1	-1	-1	39	62	25	22	-1	29	-1	44	28	12	-1	-1	-1	-1	-1	24	-1	-1	-1	-1	-1	-1	-1	-1	-1	63	-1	-1	58	-1	-1	43	5	-1	56	-1	8	-1	-1	30	-1	-1	-1	-1	-1	-1	-1	-1	-1	45
39	-1	-1	-1	-1	-1	46	-1	-1	2	-1	58	-1	-1	53	-1	-1	-1	55	-1	10	-1	-1	6	49	-1	-1	-1	4	-1	13	3	57	-1	-1	26	37	-1	-1	15	29	22	48	34	-1	7	-1	64	-1	42	1	52	-1	40	-1	-1	-1	-1	-1	-1	-1	21	-1	-1
33	-1	-1	42	27	-1	35	-1	-1	-1	-1	-1	-1	-1	-1	-1	-1	-1	46	52	39	2	-1	-1	14	32	-1	-1	-1	-1	55	23	21	-1	-1	-1	25	-1	22	5	10	-1	61	59	45	-1	24	51	49	-1	-1	-1	-1	6	64	-1	53	3	-1	18	28	-1	-1	-1
-1	62	29	-1	-1	-1	2	-1	-1	-1	57	-1	6	18	-1	-1	-1	15	-1	7	63	64	24	-1	-1	-1	-1	53	-1	-1	21	-1	-1	58	27	54	9	-1	-1	-1	-1	-1	42	-1	-1	-1	30	-1	-1	-1	-1	-1	-1	20	48	-1	-1	-1	14	41	-1	60	-1	-1
63	24	-1	6	-1	-1	59	16	64	-1	-1	29	50	47	-1	9	49	-1	-1	58	-1	-1	18	8	-1	31	27	-1	-1	25	35	-1	-1	52	-1	-1	-1	-1	39	-1	55	-1	-1	-1	32	36	1	-1	-1	-1	-1	-1	-1	-1	-1	14	-1	-1	-1	-1	-1	33	-1	51
37	33	-1	17	-1	-1	-1	-1	-1	18	5	-1	14	24	-1	-1	-1	2	-1	-1	25	-1	-1	-1	-1	-1	56	-1	-1	-1	34	10	58	-1	30	-1	48	-1	9	6	-1	-1	-1	-1	-1	-1	-1	45	-1	12	-1	15	31	-1	35	-1	-1	-1	-1	-1	-1	-1	-1	-1
-1	-1	-1	39	-1	32	14	49	-1	-1	-1	-1	30	-1	26	-1	17	64	3	-1	-1	-1	37	1	-1	-1	52	-1	-1	-1	-1	-1	8	-1	-1	11	-1	12	-1	19	-1	-1	-1	-1	-1	34	-1	16	23	2	58	-1	53	-1	-1	-1	10	-1	-1	-1	-1	38	-1	-1
-1	2	63	41	-1	30	-1	58	54	-1	-1	23	44	-1	-1	4	21	-1	51	-1	38	47	-1	55	35	-1	-1	60	9	37	33	-1	13	3	16	-1	43	-1	28	31	-1	-1	40	39	-1	19	57	-1	50	-1	49	62	-1	48	20	-1	32	-1	7	59	-1	12	29	17
59	52	-1	-1	53	31	10	-1	-1	57	-1	-1	45	-1	29	-1	-1	-1	-1	-1	41	15	-1	23	48	63	-1	47	62	36	-1	-1	44	25	-1	-1	-1	-1	64	-1	-1	18	26	-1	6	32	-1	-1	-1	-1	-1	-1	-1	-1	-1	-1	-1	56	-1	43	-1	58	27	-1
-1	-1	45	-1	-1	9	-1	35	55	-1	63	59	39	-1	1	-1	-1	-1	13	-1	-1	48	56	-1	-1	-1	23	-1	40	-1	50	-1	-1	-1	-1	-1	-1	-1	-1	-1	37	3	54	47	-1	2	58	-1	17	-1	-1	-1	-1	16	-1	34	-1	18	19	8	-1	-1	44	60
-1	-1	-1	-1	-1	-1	19	-1	-1	-1	-1	-1	52	6	-1	49	-1	-1	-1	-1	-1	58	-1	27	31	3	-1	8	-1	15	-1	-1	-1	-1	29	-1	-1	-1	-1	53	-1	30	-1	-1	-1	46	-1	24	26	64	-1	-1	-1	32	28	-1	-1	-1	-1	36	-1	57	-1	-1
-1	-1	-1	-1	-1	-1	-1	50	-1	-1	-1	36	58	48	-1	46	-1	57	22	-1	53	24	-1	-1	-1	-1	-1	-1	61	30	49	18	-1	14	54	38	-1	4	-1	-1	-1	17	-1	-1	10	56	-1	-1	59	63	-1	-1	-1	42	-1	6	-1	-1	37	-1	3	-1	5	-1
22	28	-1	-1	11	-1	16	-1	-1	-1	-1	33	47	-1	-1	64	10	-1	-1	-1	-1	-1	35	46	-1	-1	-1	-1	-1	-1	-1	-1	60	15	2	-1	26	-1	-1	51	42	48	-1	-1	-1	-1	63	-1	-1	44	3	-1	36	45	40	-1	-1	-1	24	-1	55	49	-1	4
-1	-1	39	12	4	28	-1	38	-1	-1	-1	2	-1	-1	-1	7	-1	27	-1	-1	33	57	-1	-1	-1	-1	-1	56	-1	-1	-1	36	55	-1	3	35	64	54	-1	-1	-1	-1	-1	26	-1	-1	-1	52	62	-1	-1	-1	-1	-1	23	17	-1	20	-1	-1	-1	-1	21	-1
-1	-1	-1	56	26	6	-1	-1	11	32	-1	27	15	57	-1	13	34	-1	-1	-1	-1	38	-1	-1	46	-1	-1	-1	-1	3	8	-1	-1	2	63	-1	-1	33	-1	18	28	20	-1	-1	44	-1	-1	-1	-1	10	40	53	-1	-1	50	-1	-1	-1	22	5	-1	55	54	-1
3	5	-1	22	-1	24	-1	31	-1	40	23	-1	-1	20	-1	6	-1	-1	9	-1	-1	-1	-1	-1	-1	-1	-1	-1	21	53	32	-1	19	-1	39	58	-1	-1	-1	12	-1	57	-1	-1	18	60	-1	-1	30	-1	-1	59	-1	34	-1	-1	-1	47	28	46	-1	1	33	-1
43	19	60	35	-1	2	63	-1	58	39	18	-1	16	21	28	47	59	-1	12	-1	-1	53	-1	-1	5	62	34	-1	41	-1	-1	-1	-1	-1	-1	40	-1	26	48	-1	-1	61	24	7	30	-1	-1	-1	-1	-1	55	-1	-1	-1	-1	64	-1	-1	-1	-1	23	13	14	8
-1	49	-1	-1	-1	-1	-1	-1	9	45	61	-1	-1	41	-1	-1	48	-1	-1	-1	-1	7	21	-1	-1	1	-1	-1	50	-1	-1	28	17	46	-1	56	15	-1	13	-1	-1	-1	-1	51	-1	33	-1	27	2	18	-1	19	52	3	12	20	26	34	30	-1	-1	31	-1	-1
-1	40	-1	21	-1	-1	-1	-1	33	-1	-1	-1	24	44	4	1	31	-1	-1	22	-1	13	-1	-1	-1	-1	-1	-1	-1	60	-1	38	-1	41	-1	-1	34	-1	36	9	-1	-1	29	10	-1	16	-1	-1	14	5	-1	61	-1	26	15	8	17	-1	42	3	12	-1	-1	-1
-1	-1	52	58	57	18	-1	-1	-1	54	29	55	12	-1	48	-1	64	-1	28	-1	-1	-1	30	-1	-1	-1	-1	-1	-1	-1	2	16	-1	62	-1	-1	-1	-1	14	-1	-1	19	-1	41	53	63	-1	-1	-1	-1	39	-1	21	60	-1	-1	24	-1	9	-1	-1	-1	49	50
13	50	-1	62	-1	-1	27	-1	-1	-1	31	26	-1	-1	-1	-1	-1	32	25	-1	-1	-1	-1	40	-1	6	-1	24	14	19	51	-1	-1	60	21	5	-1	7	11	-1	-1	-1	-1	-1	-1	-1	12	47	-1	38	-1	-1	-1	41	-1	-1	-1	-1	-1	-1	-1	-1	48	63
-1	15	-1	-1	-1	-1	-1	-1	-1	14	10	-1	-1	63	46	39	-1	12	-1	18	-1	22	-1	-1	24	-1	-1	40	-1	-1	-1	-1	9	-1	58	37	32	-1	-1	23	30	60	3	1	-1	52	-1	-1	36	17	53	-1	-1	19	54	-1	43	-1	26	-1	-1	-1	-1	-1
47	-1	-1	-1	-1	14	-1	36	22	7	44	56	34	19	-1	25	-1	16	15	-1	32	54	-1	-1	-1	39	-1	-1	53	-1	48	-1	-1	-1	-1	55	-1	27	21	60	-1	-1	37	-1	-1	-1	13	-1	46	-1	-1	18	-1	-1	62	-1	8	-1	-1	-1	-1	-1	-1	-1
10	-1	-1	-1	44	39	-1	-1	-1	-1	2	-1	37	-1	57	-1	-1	-1	-1	-1	-1	40	-1	-1	34	8	22	18	-1	50	-1	27	6	-1	-1	-1	-1	-1	-1	54	19	64	-1	-1	-1	24	-1	-1	-1	20	-1	28	16	52	-1	-1	-1	-1	15	7	-1	-1	-1	-1
-1	-1	-1	-1	-1	-1	-1	57	-1	41	-1	-1	-1	35	18	-1	62	46	44	-1	52	-1	-1	50	54	-1	-1	36	-1	-1	-1	-1	-1	53	-1	20	3	-1	7	-1	-1	31	-1	-1	38	-1	56	26	15	51	29	-1	-1	-1	8	-1	-1	-1	4	10	-1	40	-1	-1
18	-1	-1	-1	40	-1	-1	24	47	-1	55	17	-1	-1	-1	-1	-1	-1	-1	37	-1	45	29	-1	-1	-1	-1	-1	-1	-1	-1	-1	-1	-1	10	52	-1	-1	51	49	21	-1	-1	-1	16	-1	-1	43	-1	-1	23	-1	-1	-1	59	39	46	22	-1	-1	-1	-1	-1	-1
-1	-1	22	-1	35	-1	64	-1	40	20	-1	-1	-1	59	-1	-1	1	-1	36	48	-1	-1	-1	-1	-1	-1	43	-1	-1	-1	-1	58	15	-1	-1	-1	61	-1	50	-1	-1	28	-1	46	7	-1	54	34	-1	6	-1	11	25	-1	-1	37	55	-1	3	-1	-1	-1	-1	-1
-1	-1	30	-1	-1	42	-1	17	-1	61	-1	-1	64	-1	-1	-1	-1	55	49	-1	13	14	-1	-1	23	-1	-1	31	60	-1	-1	-1	-1	-1	-1	-1	-1	28	-1	-1	18	-1	-1	-1	-1	-1	-1	58	-1	33	-1	-1	38	-1	-1	-1	-1	-1	62	-1	59	-1	39	-1
25	-1	-1	52	34	61	-1	-1	-1	-1	50	9	8	-1	-1	-1	-1	-1	-1	53	-1	-1	20	10	7	-1	-1	-1	-1	46	-1	-1	14	18	-1	59	45	62	42	16	-1	55	22	35	-1	23	17	-1	-1	-1	-1	-1	-1	21	-1	-1	27	-1	-1	54	-1	11	57	-1
-1	27	-1	-1	45	-1	31	11	25	-1	-1	50	-1	64	-1	-1	-1	20	-1	-1	51	49	-1	17	-1	55	-1	-1	-1	-1	-1	-1	-1	-1	61	-1	29	-1	58	-1	-1	13	34	-1	-1	38	32	-1	53	60	-1	-1	-1	-1	33	62	-1	48	-1	-1	4	-1	-1	-1
-1	6	28	-1	-1	-1	-1	-1	-1	-1	-1	-1	18	-1	-1	-1	58	9	-1	59	-1	32	41	-1	1	61	20	25	-1	8	53	-1	-1	-1	-1	13	16	30	5	-1	-1	-1	-1	45	31	-1	42	-1	-1	-1	14	-1	-1	49	-1	-1	-1	-1	-1	39	35	-1	12	-1
-1	-1	38	-1	24	-1	-1	-1	-1	21	34	30	-1	27	-1	57	-1	36	-1	64	-1	-1	-1	-1	2	-1	41	35	31	-1	-1	-1	-1	-1	-1	15	14	53	33	52	-1	-1	39	4	-1	62	-1	-1	-1	-1	-1	-1	-1	5	-1	-1	60	28	-1	50	-1	22	9	-1
-1	-1	-1	-1	2	-1	52	-1	37	-1	-1	-1	-1	-1	55	24	23	-1	-1	-1	4	-1	44	-1	-1	-1	36	59	17	32	-1	-1	20	28	46	-1	-1	-1	-1	64	48	-1	63	-1	-1	-1	6	-1	42	-1	-1	25	-1	-1	-1	-1	-1	-1	-1	-1	-1	-1	-1	-1
-1	-1	35	-1	-1	-1	-1	-1	52	-1	-1	-1	-1	-1	14	-1	46	-1	-1	-1	30	29	26	-1	-1	-1	-1	-1	-1	-1	-1	-1	31	-1	-1	-1	41	-1	-1	-1	56	-1	-1	-1	60	-1	-1	54	37	-1	-1	-1	61	39	10	-1	20	-1	-1	-1	27	-1	-1	6
23	-1	33	59	-1	-1	43	-1	7	22	20	6	-1	-1	47	-1	18	42	52	-1	-1	16	-1	-1	-1	-1	-1	12	37	4	-1	30	3	-1	-1	-1	-1	-1	-1	56	-1	-1	-1	8	-1	58	-1	44	54	-1	-1	-1	40	-1	38	9	-1	-1	-1	15	-1	41	-1	-1
-1	63	-1	-1	-1	-1	-1	-1	-1	-1	-1	40	-1	2	61	-1	12	25	57	-1	37	-1	14	-1	-1	-1	-1	-1	-1	-1	-1	15	-1	-1	62	24	22	8	-1	-1	-1	-1	-1	16	-1	-1	23	30	-1	32	17	-1	50	-1	-1	-1	18	-1	29	-1	-1	3	-1	-1
-1	-1	-1	64	-1	-1	30	-1	-1	-1	-1	-1	-1	28	-1	-1	35	60	54	5	-1	19	62	34	26	-1	45	-1	23	-1	14	-1	2	-1	-1	-1	-1	63	-1	10	17	-1	-1	-1	20	1	-1	61	-1	7	31	-1	-1	36	-1	44	-1	57	-1	58	37	43	59	-1
14	13	17	61	-1	-1	-1	15	-1	6	-1	-1	1	-1	-1	-1	-1	-1	-1	-1	36	10	-1	-1	-1	42	57	-1	-1	-1	-1	47	48	-1	-1	-1	-1	51	-1	-1	-1	-1	19	-1	52	37	28	32	-1	-1	-1	35	-1	8	-1	-1	-1	-1	25	11	62	-1	-1	12
-1	59	7	-1	-1	-1	-1	45	-1	-1	-1	61	-1	4	24	-1	-1	56	-1	-1	-1	-1	13	-1	53	-1	-1	27	28	41	-1	19	52	-1	-1	-1	20	-1	-1	-1	16	-1	64	-1	47	-1	26	40	-1	-1	21	49	-1	54	1	-1	-1	33	-1	-1	-1	-1	-1	-1
-1	-1	-1	-1	-1	-1	28	-1	-1	36	9	-1	-1	-1	-1	-1	5	41	-1	-1	16	-1	-1	-1	29	-1	-1	-1	-1	62	-1	-1	39	-1	59	-1	-1	-1	-1	38	-1	34	-1	54	35	-1	-1	25	-1	45	-1	-1	-1	-1	-1	50	-1	-1	8	-1	2	27	24	-1
-1	54	58	25	-1	-1	-1	-1	-1	3	-1	53	-1	-1	35	56	-1	19	-1	39	-1	-1	-1	62	-1	-1	-1	16	-1	10	40	24	-1	9	-1	45	-1	47	-1	-1	-1	1	-1	-1	4	-1	41	-1	-1	-1	-1	-1	-1	7	52	30	-1	-1	-1	-1	21	26	-1	28
-1	-1	-1	48	8	43	62	-1	-1	12	-1	-1	19	25	15	52	-1	26	7	24	44	-1	-1	-1	45	64	-1	54	32	11	-1	-1	-1	-1	-1	-1	-1	1	2	3	58	-1	-1	-1	-1	18	10	-1	-1	-1	51	-1	-1	61	9	-1	-1	-1	57	49	34	39	-1	-1
20	-1	32	-1	23	-1	-1	-1	46	13	-1	51	22	-1	-1	-1	-1	-1	-1	9	-1	52	43	-1	33	-1	38	-1	-1	-1	59	55	-1	27	50	-1	60	10	49	-1	24	6	30	-1	-1	-1	-1	-1	-1	-1	-1	2	15	-1	-1	-1	-1	-1	-1	-1	7	56	40	41
-1	-1	-1	-1	-1	1	-1	-1	-1	47	37	-1	-1	-1	-1	-1	57	40	-1	-1	-1	-1	-1	-1	-1	-1	-1	-1	63	-1	-1	51	42	-1	-1	-1	-1	-1	6	4	-1	-1	-1	49	-1	61	-1	-1	44	-1	64	-1	-1	-1	-1	41	-1	14	-1	60	-1	10	-1	9
-1	-1	-1	9	-1	29	-1	40	21	-1	59	-1	32	-1	-1	-1	-1	-1	-1	-1	22	60	-1	-1	-1	-1	-1	-1	-1	-1	-1	48	-1	-1	8	16	36	-1	35	30	14	-1	-1	42	-1	17	53	-1	4	-1	12	10	-1	-1	-1	3	-1	55	52	-1	-1	-1	6	-1
42	-1	47	-1	-1	-1	33	64	-1	1	-1	-1	40	60	8	-1	-1	-1	-1	34	26	59	-1	51	-1	7	-1	41	5	23	-1	57	-1	-1	-1	19	27	11	-1	37	-1	-1	25	-1	-1	55	45	-1	-1	-1	-1	48	-1	4	-1	63	62	31	-1	2	-1	-1	-1	16
-1	45	55	-1	51	53	-1	61	5	64	6	63	33	-1	36	-1	39	14	2	57	47	1	-1	-1	32	-1	11	-1	-1	-1	44	8	22	-1	35	-1	54	59	23	-1	-1	-1	50	58	-1	-1	-1	-1	-1	21	-1	-1	-1	-1	-1	49	-1	41	12	-1	13	-1	-1	-1
-1	-1	16	40	19	-1	24	-1	57	-1	56	-1	-1	-1	59	-1	-1	-1	32	38	-1	-1	-1	22	-1	-1	-1	-1	-1	-1	-1	-1	1	-1	44	-1	53	55	-1	61	23	37	-1	-1	-1	-1	-1	8	-1	-1	-1	-1	18	-1	-1	-1	-1	39	10	63	-1	-1	-1	-1
-1	-1	23	20	-1	-1	-1	-1	-1	-1	-1	25	29	14	30	-1	-1	62	-1	55	-1	-1	-1	-1	-1	-1	37	-1	-1	-1	43	-1	45	-1	-1	-1	-1	60	57	-1	-1	-1	-1	-1	-1	-1	-1	-1	-1	-1	-1	-1	26	1	-1	-1	4	-1	-1	-1	22	-1	-1	-1
31	-1	25	30	-1	-1	-1	-1	-1	-1	58	39	-1	43	11	44	19	-1	-1	15	12	-1	16	37	21	-1	53	14	54	-1	-1	13	-1	-1	-1	-1	-1	-1	38	-1	-1	32	-1	-1	2	-1	60	4	-1	-1	-1	23	62	17	51	10	40	-1	49	29	-1	42	-1	-1
-1	12	-1	-1	-1	59	-1	-1	-1	-1	17	34	-1	-1	20	-1	-1	-1	31	4	-1	-1	-1	7	-1	-1	39	26	-1	-1	1	-1	-1	-1	-1	-1	-1	-1	62	-1	64	47	57	-1	-1	-1	51	-1	45	-1	22	43	14	37	19	-1	-1	-1	53	30	46	-1	23	-1
-1	-1	-1	15	-1	-1	-1	-1	-1	-1	3	-1	-1	-1	38	37	-1	23	45	-1	58	-1	-1	20	-1	-1	17	-1	6	16	-1	35	-1	-1	34	-1	7	52	31	-1	61	-1	14	56	41	40	-1	63	-1	-1	-1	50	-1	11	55	-1	-1	-1	-1	27	-1	-1	-1	-1
-1	34	-1	-1	-1	-1	-1	46	-1	52	-1	10	-1	-1	-1	-1	-1	53	-1	44	-1	33	49	-1	58	60	48	-1	24	31	18	-1	-1	40	-1	3	-1	43	4	-1	15	-1	16	27	-1	-1	-1	-1	-1	-1	-1	-1	-1	64	7	5	-1	37	-1	61	-1	8	-1	38
64 
61 43 6 63
2 54 62 36
2 41 11 38
12 37 37 32
54 51 21 37
12 25 51 19
43 23 23 17
9 40 55 12
26 8 14 50
51 9 31 18
37 47 46 59
52 25 57 42
51 37 16 35
22 20 52 11
40 48 45 46
38 15 7 57
4 55 1 31
58 63 48 3
39 1 47 10
56 19 3 26
9 8 23 58
55 35 32 15
10 37 6 48
4 4 34 24
18 10 54 36
55 8 11 7
42 29 8 58
36 1 23 62
48 42 18 5
63 50 59 34
12 9 26 54
9 20 45 4
38 11 44 18
58 60 45 6
4 63 26 43
21 20 31 55
30 10 32 44
14 18 4 56
24 36 56 29
22 21 41 32
61 36 38 46
33 45 52 5
41 33 40 56
23 47 54 28
46 58 44 24
55 48 21 26
53 23 33 34
43 19 60 59
30 53 62 4
27 38 12 58
20 41 13 2
23 51 39 31
21 16 49 17
12 31 2 30
35 2 62 30
38 25 8 19
24 56 61 49
47 31 50 59
36 30 8 10
29 61 22 44
9 13 16 49
26 48 1 62
38 63 60 25
60 19 26 47
